
Gurobi 8.0.1 (mac64, Python) logging started Tue Feb 23 20:11:21 2021


Gurobi 8.0.1 (mac64, Python) logging started Tue Feb 23 20:11:45 2021


Gurobi 8.0.1 (mac64) logging started Tue Feb 23 20:20:54 2021


ERROR 10009: No Gurobi license found (user root, host Shreyass-Air.domain.name, hostid d6175272, cores 2)


Gurobi 8.0.1 (mac64) logging started Tue Feb 23 20:31:44 2021


ERROR 10009: No Gurobi license found (user root, host Shreyass-Air.domain.name, hostid d6175272, cores 2)


Gurobi 8.0.1 (mac64) logging started Wed Feb 24 19:42:49 2021


ERROR 10009: No Gurobi license found (user shreyasshandilya, host Shreyass-Air.domain.name, hostid d6175272, cores 2)


Gurobi 8.0.1 (mac64) logging started Wed Feb 24 19:45:33 2021


ERROR 10009: No Gurobi license found (user shreyasshandilya, host Shreyass-Air.domain.name, hostid d6175272, cores 2)


Gurobi 8.0.1 (mac64) logging started Wed Feb 24 19:49:02 2021


ERROR 10009: No Gurobi license found (user shreyasshandilya, host Shreyass-Air.domain.name, hostid d6175272, cores 2)


Gurobi 8.0.1 (mac64) logging started Wed Feb 24 19:49:32 2021


ERROR 10009: No Gurobi license found (user root, host Shreyass-Air.domain.name, hostid d6175272, cores 2)

